c "499046.clq"
p edge 140 544
e 1 5
e 1 6
e 1 7
e 1 8
e 1 10
e 1 14
e 1 18
e 1 44
e 1 50
e 1 53
e 1 54
e 1 66
e 1 75
e 1 78
e 1 101
e 1 112
e 1 113
e 2 5
e 2 7
e 2 9
e 2 30
e 2 40
e 2 61
e 2 68
e 2 111
e 3 5
e 3 6
e 3 16
e 3 29
e 3 67
e 4 5
e 4 6
e 4 7
e 4 8
e 4 12
e 4 24
e 4 25
e 4 28
e 4 30
e 4 33
e 4 37
e 4 39
e 4 45
e 4 50
e 4 77
e 4 81
e 4 84
e 4 116
e 4 118
e 4 124
e 4 127
e 5 6
e 5 7
e 5 9
e 5 10
e 5 13
e 5 17
e 5 18
e 5 19
e 5 20
e 5 26
e 5 27
e 5 30
e 5 34
e 5 47
e 5 52
e 5 57
e 5 65
e 5 74
e 5 78
e 5 79
e 5 92
e 5 104
e 5 107
e 5 111
e 5 116
e 5 117
e 5 119
e 5 126
e 5 136
e 6 8
e 6 10
e 6 11
e 6 12
e 6 13
e 6 14
e 6 16
e 6 17
e 6 18
e 6 19
e 6 27
e 6 29
e 6 36
e 6 39
e 6 42
e 6 43
e 6 48
e 6 51
e 6 56
e 6 58
e 6 60
e 6 61
e 6 63
e 6 66
e 6 73
e 6 76
e 6 89
e 6 91
e 6 96
e 6 100
e 6 101
e 6 104
e 6 106
e 6 113
e 6 114
e 6 115
e 6 122
e 6 125
e 6 135
e 7 8
e 7 9
e 7 10
e 7 11
e 7 12
e 7 16
e 7 21
e 7 22
e 7 23
e 7 28
e 7 34
e 7 35
e 7 37
e 7 43
e 7 46
e 7 48
e 7 58
e 7 60
e 7 66
e 7 69
e 7 71
e 7 72
e 7 75
e 7 78
e 7 81
e 7 82
e 7 85
e 7 87
e 7 88
e 7 95
e 7 96
e 7 99
e 7 103
e 7 128
e 8 9
e 8 15
e 8 17
e 8 22
e 8 31
e 8 37
e 8 42
e 8 44
e 8 51
e 8 59
e 8 70
e 8 89
e 8 93
e 8 120
e 8 122
e 8 130
e 8 131
e 9 11
e 9 12
e 9 13
e 9 14
e 9 24
e 9 47
e 9 48
e 9 49
e 9 63
e 9 105
e 9 116
e 9 127
e 10 11
e 10 13
e 10 15
e 10 20
e 10 21
e 10 25
e 10 26
e 10 34
e 10 38
e 10 40
e 10 45
e 10 58
e 10 62
e 10 70
e 10 101
e 10 103
e 10 122
e 10 138
e 11 23
e 11 28
e 11 41
e 11 52
e 11 53
e 11 59
e 11 67
e 11 71
e 11 76
e 11 126
e 12 14
e 12 62
e 12 84
e 12 134
e 12 139
e 13 15
e 13 16
e 13 23
e 13 24
e 13 25
e 13 27
e 13 29
e 13 32
e 13 38
e 13 47
e 13 50
e 13 57
e 13 61
e 13 81
e 13 87
e 13 91
e 13 97
e 13 100
e 13 106
e 13 140
e 14 15
e 14 18
e 14 27
e 14 32
e 14 33
e 14 41
e 14 46
e 14 54
e 14 61
e 14 64
e 14 72
e 14 73
e 14 85
e 14 87
e 15 20
e 15 23
e 15 29
e 15 37
e 15 42
e 15 46
e 15 55
e 15 59
e 15 60
e 15 78
e 15 83
e 15 104
e 15 140
e 16 17
e 16 19
e 16 22
e 16 25
e 16 26
e 16 31
e 16 33
e 16 34
e 16 35
e 16 39
e 16 42
e 16 53
e 16 64
e 16 71
e 16 85
e 16 92
e 16 94
e 16 110
e 16 111
e 16 114
e 16 115
e 16 119
e 16 123
e 16 132
e 16 136
e 17 22
e 17 40
e 17 85
e 17 98
e 17 102
e 17 110
e 18 19
e 18 20
e 18 21
e 18 31
e 18 44
e 18 83
e 18 96
e 18 102
e 18 110
e 19 21
e 19 24
e 19 26
e 19 35
e 19 41
e 19 45
e 19 52
e 19 63
e 19 68
e 19 102
e 19 121
e 19 127
e 19 133
e 20 38
e 20 52
e 21 28
e 21 33
e 21 90
e 22 35
e 22 50
e 22 51
e 22 66
e 22 84
e 22 121
e 23 30
e 23 32
e 23 45
e 23 56
e 23 60
e 23 69
e 23 88
e 23 98
e 24 39
e 24 65
e 24 113
e 24 119
e 25 31
e 25 47
e 25 53
e 25 81
e 25 124
e 26 79
e 26 91
e 26 129
e 27 51
e 27 62
e 27 73
e 27 94
e 27 104
e 28 32
e 28 36
e 28 49
e 28 54
e 28 65
e 28 132
e 29 36
e 29 56
e 29 57
e 29 75
e 29 88
e 29 97
e 30 36
e 30 82
e 30 90
e 30 93
e 30 106
e 30 132
e 31 40
e 31 80
e 31 83
e 31 99
e 31 130
e 31 140
e 32 38
e 32 43
e 32 102
e 32 106
e 32 120
e 32 131
e 32 138
e 33 56
e 33 64
e 33 65
e 33 71
e 33 94
e 33 103
e 33 125
e 34 114
e 34 135
e 35 48
e 35 49
e 35 83
e 35 95
e 35 99
e 35 103
e 36 64
e 36 72
e 36 86
e 36 97
e 37 44
e 37 82
e 37 91
e 37 111
e 37 128
e 38 49
e 38 99
e 38 107
e 38 135
e 39 69
e 39 77
e 39 79
e 39 109
e 40 41
e 40 55
e 40 67
e 40 70
e 40 74
e 40 80
e 40 84
e 40 90
e 40 117
e 40 128
e 41 88
e 41 89
e 41 113
e 42 43
e 42 46
e 42 67
e 42 98
e 42 107
e 43 54
e 43 105
e 44 68
e 44 89
e 44 136
e 45 58
e 45 62
e 45 108
e 46 69
e 47 70
e 47 123
e 47 125
e 47 130
e 48 90
e 48 114
e 49 79
e 50 76
e 51 55
e 51 57
e 51 72
e 51 97
e 51 118
e 51 129
e 51 133
e 52 107
e 52 120
e 52 128
e 53 55
e 53 63
e 53 76
e 53 95
e 53 117
e 53 134
e 54 108
e 55 74
e 55 101
e 55 108
e 55 109
e 56 59
e 56 75
e 56 100
e 56 105
e 56 120
e 57 123
e 59 68
e 59 73
e 59 80
e 59 122
e 59 133
e 60 112
e 61 115
e 61 134
e 61 138
e 61 139
e 62 94
e 63 87
e 63 109
e 64 77
e 64 119
e 65 74
e 67 98
e 67 137
e 68 77
e 68 129
e 69 86
e 69 105
e 69 140
e 71 121
e 72 86
e 73 82
e 75 109
e 76 139
e 77 92
e 77 123
e 78 86
e 78 131
e 79 80
e 79 137
e 80 95
e 80 96
e 81 112
e 83 93
e 83 136
e 85 92
e 87 125
e 87 126
e 89 100
e 89 110
e 89 129
e 89 132
e 90 117
e 91 108
e 92 93
e 93 127
e 94 135
e 95 126
e 96 115
e 96 118
e 100 116
e 103 134
e 104 121
e 105 124
e 109 112
e 113 130
e 115 138
e 116 118
e 117 131
e 117 137
e 118 139
e 121 124
e 124 133
e 130 137
